p cnf 999 565
139 0
143 0
152 0
186 0
284 0
316 0
354 0
372 0
381 0
433 0
448 0
494 0
599 0
628 0
631 0
656 0
665 0
729 0
763 0
775 0
841 0
917 0
962 0
989 0
-131 0
-132 0
-133 0
-134 0
-135 0
-136 0
-137 0
-138 0
-141 0
-142 0
-144 0
-145 0
-146 0
-147 0
-148 0
-149 0
-151 0
-153 0
-154 0
-155 0
-156 0
-157 0
-158 0
-159 0
-181 0
-182 0
-183 0
-184 0
-185 0
-187 0
-188 0
-189 0
-281 0
-282 0
-283 0
-285 0
-286 0
-287 0
-288 0
-289 0
-311 0
-312 0
-313 0
-314 0
-315 0
-317 0
-318 0
-319 0
-351 0
-352 0
-353 0
-355 0
-356 0
-357 0
-358 0
-359 0
-371 0
-373 0
-374 0
-375 0
-376 0
-377 0
-378 0
-379 0
-382 0
-383 0
-384 0
-385 0
-386 0
-387 0
-388 0
-389 0
-431 0
-432 0
-434 0
-435 0
-436 0
-437 0
-438 0
-439 0
-441 0
-442 0
-443 0
-444 0
-445 0
-446 0
-447 0
-449 0
-491 0
-492 0
-493 0
-495 0
-496 0
-497 0
-498 0
-499 0
-591 0
-592 0
-593 0
-594 0
-595 0
-596 0
-597 0
-598 0
-621 0
-622 0
-623 0
-624 0
-625 0
-626 0
-627 0
-629 0
-632 0
-633 0
-634 0
-635 0
-636 0
-637 0
-638 0
-639 0
-651 0
-652 0
-653 0
-654 0
-655 0
-657 0
-658 0
-659 0
-661 0
-662 0
-663 0
-664 0
-666 0
-667 0
-668 0
-669 0
-721 0
-722 0
-723 0
-724 0
-725 0
-726 0
-727 0
-728 0
-761 0
-762 0
-764 0
-765 0
-766 0
-767 0
-768 0
-769 0
-771 0
-772 0
-773 0
-774 0
-776 0
-777 0
-778 0
-779 0
-842 0
-843 0
-844 0
-845 0
-846 0
-847 0
-848 0
-849 0
-911 0
-912 0
-913 0
-914 0
-915 0
-916 0
-918 0
-919 0
-961 0
-963 0
-964 0
-965 0
-966 0
-967 0
-968 0
-969 0
-981 0
-982 0
-983 0
-984 0
-985 0
-986 0
-987 0
-988 0
-116 0
-126 0
-216 0
-226 0
-236 0
-326 0
-336 0
-119 0
-129 0
-219 0
-229 0
-239 0
-329 0
-339 0
-162 0
-242 0
-252 0
-262 0
-342 0
-362 0
-163 0
-243 0
-253 0
-263 0
-343 0
-363 0
-164 0
-244 0
-254 0
-264 0
-344 0
-364 0
-171 0
-191 0
-271 0
-291 0
-391 0
-172 0
-192 0
-272 0
-292 0
-392 0
-174 0
-194 0
-274 0
-294 0
-394 0
-176 0
-196 0
-276 0
-296 0
-396 0
-411 0
-421 0
-511 0
-521 0
-531 0
-611 0
-413 0
-423 0
-513 0
-523 0
-533 0
-613 0
-418 0
-428 0
-518 0
-528 0
-538 0
-618 0
-455 0
-465 0
-545 0
-555 0
-565 0
-645 0
-456 0
-466 0
-546 0
-556 0
-566 0
-646 0
-458 0
-468 0
-548 0
-558 0
-568 0
-648 0
-474 0
-484 0
-574 0
-584 0
-674 0
-684 0
-694 0
-479 0
-489 0
-579 0
-589 0
-679 0
-689 0
-699 0
-717 0
-737 0
-817 0
-827 0
-837 0
-927 0
-937 0
-719 0
-739 0
-819 0
-829 0
-839 0
-929 0
-939 0
-741 0
-751 0
-851 0
-861 0
-941 0
-951 0
-742 0
-752 0
-852 0
-862 0
-942 0
-952 0
-743 0
-753 0
-853 0
-863 0
-943 0
-953 0
-785 0
-795 0
-875 0
-885 0
-895 0
-975 0
-995 0
-789 0
-799 0
-879 0
-889 0
-899 0
-979 0
-999 0
-112 0
-122 0
-113 0
-123 0
-173 0
-193 0
-166 0
-169 0
-179 0
-199 0
-214 0
-224 0
-234 0
-321 0
-331 0
-341 0
-361 0
-322 0
-332 0
-324 0
-334 0
-346 0
-366 0
-453 0
-463 0
-473 0
-483 0
-414 0
-424 0
-454 0
-464 0
-478 0
-488 0
-519 0
-529 0
-539 0
-549 0
-559 0
-569 0
-641 0
-671 0
-681 0
-691 0
-615 0
-675 0
-685 0
-695 0
-616 0
-676 0
-686 0
-696 0
-678 0
-688 0
-698 0
-713 0
-733 0
-783 0
-793 0
-715 0
-735 0
-745 0
-755 0
-749 0
-759 0
-811 0
-821 0
-831 0
-871 0
-881 0
-891 0
-922 0
-932 0
-972 0
-992 0
-947 0
-957 0
-977 0
-997 0
-949 0
-959 0
-416 0
-516 0
-716 0
-816 0
-117 0
-217 0
-417 0
-517 0
-617 0
-128 0
-228 0
-328 0
-828 0
-928 0
-429 0
-231 0
-731 0
-931 0
-233 0
-333 0
-833 0
-933 0
-241 0
-541 0
-543 0
-643 0
-248 0
-348 0
-748 0
-948 0
-452 0
-552 0
-554 0
-754 0
-854 0
-954 0
-256 0
-756 0
-856 0
-956 0
-462 0
-562 0
-563 0
-165 0
-265 0
-365 0
-865 0
-472 0
-572 0
-672 0
-872 0
-175 0
-275 0
-475 0
-575 0
-481 0
-581 0
-781 0
-784 0
-884 0
-486 0
-586 0
-786 0
-886 0
-794 0
-894 0
-994 0
-299 0
-399 0
279 0
553 0
-273 0
-277 0
-278 0
-551 0
-557 0
-249 0
-259 0
-269 0
-573 0
-583 0
788 0
-782 0
-787 0
-798 0
-878 0
-888 0
-898 0
-978 0
-998 0
-718 0
-738 0
-758 0
-588 0
757 0
578 0
-571 0
-576 0
-577 0
-747 0
-857 0
-867 0
-797 0
-257 0
-457 0
-178 0
177 0
471 0
476 0
561 0
-477 0
-197 0
-297 0
-397 0
-127 0
-167 0
-451 0
-461 0
-971 0
-677 0
-877 0